2:Cmmm(65)                              
   1.00000000000000     
     3.4655437004804157    0.0000000000000000    0.0000000000073858
     0.0000000000000000    9.7818014859375673    0.0000000000000000
     0.0000000000051203    0.0000000000000000    2.4177533991019411
   Mg   Si   O 
     4     2     6
Direct
  0.0000000000000000  0.3399221460339686 -0.0000000000000000
  0.5000000000000000  0.1600778539661379 -0.0000000000000000
  0.5000000000000000  0.8399221460350916 -0.0000000000000000
  0.0000000000000000  0.6600778539649084 -0.0000000000000000
  0.0000000000000000  0.0000000000000000  0.5000000000000000
  0.5000000000000000  0.5000000000000000  0.5000000000000000
 -0.0000000000000000  0.1763960398195114  0.5000000000000000
  0.5000000000000000  0.3236039601804394  0.5000000000000000
  0.5000000000000000  0.0000000000000000  0.5000000000000000
  0.5000000000000000  0.6763960398210104  0.5000000000000000
  0.0000000000000000  0.8236039601789896  0.5000000000000000
 -0.0000000000000000  0.5000000000000000  0.5000000000000000
 
  0.00000000E+00  0.00000000E+00  0.00000000E+00
  0.00000000E+00  0.00000000E+00  0.00000000E+00
  0.00000000E+00  0.00000000E+00  0.00000000E+00
  0.00000000E+00  0.00000000E+00  0.00000000E+00
  0.00000000E+00  0.00000000E+00  0.00000000E+00
  0.00000000E+00  0.00000000E+00  0.00000000E+00
  0.00000000E+00  0.00000000E+00  0.00000000E+00
  0.00000000E+00  0.00000000E+00  0.00000000E+00
  0.00000000E+00  0.00000000E+00  0.00000000E+00
  0.00000000E+00  0.00000000E+00  0.00000000E+00
  0.00000000E+00  0.00000000E+00  0.00000000E+00
  0.00000000E+00  0.00000000E+00  0.00000000E+00
