1:Cmmm(65)                              
   1.00000000000000     
     4.1808399310610822    0.0000000000000000    0.0000000000000000
     0.0000000000000000    8.2971260029204821    0.0000000000000000
    -0.0000000000000000    0.0000000000000000    2.0946849108707424
   Mg   Si   O 
     6     2     8
Direct
  0.5000000000000000  0.2621883395758975  0.5000000000000000
  0.0000000000000000  0.2378116604241025  0.5000000000000000
  0.5000000000000000 -0.0000000000000000  0.5000000000000000
  0.0000000000000000  0.7621883395758975  0.5000000000000000
  0.5000000000000000  0.7378116604241025  0.5000000000000000
  0.0000000000000000  0.5000000000000000  0.5000000000000000
  0.0000000000000000 -0.0000000000000000 -0.0000000000000000
  0.5000000000000000  0.5000000000000000 -0.0000000000000000
  0.7325643039013168  0.1309071423600884 -0.0000000000000000
  0.7674356960986832  0.3690928576399117 -0.0000000000000000
  0.2674356960986832  0.1309071423600884 -0.0000000000000000
  0.2325643039013168  0.3690928576399117  0.0000000000000000
  0.2325643039013168  0.6309071423600885  0.0000000000000000
  0.2674356960986832  0.8690928576399115 -0.0000000000000000
  0.7674356960986832  0.6309071423600885 -0.0000000000000000
  0.7325643039013168  0.8690928576399115  0.0000000000000000
 
  0.00000000E+00  0.00000000E+00  0.00000000E+00
  0.00000000E+00  0.00000000E+00  0.00000000E+00
  0.00000000E+00  0.00000000E+00  0.00000000E+00
  0.00000000E+00  0.00000000E+00  0.00000000E+00
  0.00000000E+00  0.00000000E+00  0.00000000E+00
  0.00000000E+00  0.00000000E+00  0.00000000E+00
  0.00000000E+00  0.00000000E+00  0.00000000E+00
  0.00000000E+00  0.00000000E+00  0.00000000E+00
  0.00000000E+00  0.00000000E+00  0.00000000E+00
  0.00000000E+00  0.00000000E+00  0.00000000E+00
  0.00000000E+00  0.00000000E+00  0.00000000E+00
  0.00000000E+00  0.00000000E+00  0.00000000E+00
  0.00000000E+00  0.00000000E+00  0.00000000E+00
  0.00000000E+00  0.00000000E+00  0.00000000E+00
  0.00000000E+00  0.00000000E+00  0.00000000E+00
  0.00000000E+00  0.00000000E+00  0.00000000E+00
