1:Cmmm(65)                              
   1.00000000000000     
     6.6532966133395357    0.0000000000000000    0.0000000000000000
     0.0000000000000000    4.4014206753726342    0.0000000000000000
     0.0000000000000000    0.0000000000000000    1.8366133536539311
   Mg   Si   O 
     8     2     6
Direct
  0.1370685300670028  0.2934386442596837  0.0000000000000000
  0.1370685300670028  0.7065613557403163  0.0000000000000000
  0.8629314699330045  0.7065613557403163  0.0000000000000000
  0.8629314699330045  0.2934386442596837  0.0000000000000000
  0.6370685300669955  0.7934386442596837  0.0000000000000000
  0.6370685300669955  0.2065613557403162 -0.0000000000000000
  0.3629314699329971  0.2065613557403162  0.0000000000000000
  0.3629314699329971  0.7934386442596837  0.0000000000000000
  0.0000000000000000 -0.0000000000000000  0.5000000000000000
  0.5000000000000000  0.5000000000000000  0.5000000000000000
  0.2200447102487158 -0.0000000000000000  0.5000000000000000
  0.7799552897512840 -0.0000000000000000  0.5000000000000000
  0.0000000000000000  0.5000000000000000  0.5000000000000000
  0.7200447102487160  0.5000000000000000  0.5000000000000000
  0.2799552897512841  0.5000000000000000  0.5000000000000000
  0.5000000000000000 -0.0000000000000000  0.5000000000000000
 
  0.00000000E+00  0.00000000E+00  0.00000000E+00
  0.00000000E+00  0.00000000E+00  0.00000000E+00
  0.00000000E+00  0.00000000E+00  0.00000000E+00
  0.00000000E+00  0.00000000E+00  0.00000000E+00
  0.00000000E+00  0.00000000E+00  0.00000000E+00
  0.00000000E+00  0.00000000E+00  0.00000000E+00
  0.00000000E+00  0.00000000E+00  0.00000000E+00
  0.00000000E+00  0.00000000E+00  0.00000000E+00
  0.00000000E+00  0.00000000E+00  0.00000000E+00
  0.00000000E+00  0.00000000E+00  0.00000000E+00
  0.00000000E+00  0.00000000E+00  0.00000000E+00
  0.00000000E+00  0.00000000E+00  0.00000000E+00
  0.00000000E+00  0.00000000E+00  0.00000000E+00
  0.00000000E+00  0.00000000E+00  0.00000000E+00
  0.00000000E+00  0.00000000E+00  0.00000000E+00
  0.00000000E+00  0.00000000E+00  0.00000000E+00
